p cnf 360 2880
1 -181 -109 0
-1 181 -109 0
1 181 -110 0
-1 -181 -110 0
19 -181 -121 0
-19 181 -121 0
19 181 -122 0
-19 -181 -122 0
37 -181 -133 0
-37 181 -133 0
37 181 -134 0
-37 -181 -134 0
55 -181 -145 0
-55 181 -145 0
55 181 -146 0
-55 -181 -146 0
73 -181 -157 0
-73 181 -157 0
73 181 -158 0
-73 -181 -158 0
91 -181 -169 0
-91 181 -169 0
91 181 -170 0
-91 -181 -170 0
2 -109 0
2 -110 0
109 -109 0
110 -110 0
20 -121 0
20 -122 0
121 -121 0
122 -122 0
38 -133 0
38 -134 0
133 -133 0
134 -134 0
56 -145 0
56 -146 0
145 -145 0
146 -146 0
74 -157 0
74 -158 0
157 -157 0
158 -158 0
92 -169 0
92 -170 0
169 -169 0
170 -170 0
3 -182 -109 0
-3 182 -109 0
3 182 -110 0
-3 -182 -110 0
21 -182 -121 0
-21 182 -121 0
21 182 -122 0
-21 -182 -122 0
39 -182 -133 0
-39 182 -133 0
39 182 -134 0
-39 -182 -134 0
57 -182 -145 0
-57 182 -145 0
57 182 -146 0
-57 -182 -146 0
75 -182 -157 0
-75 182 -157 0
75 182 -158 0
-75 -182 -158 0
93 -182 -169 0
-93 182 -169 0
93 182 -170 0
-93 -182 -170 0
4 -109 0
4 -110 0
109 -109 0
110 -110 0
22 -121 0
22 -122 0
121 -121 0
122 -122 0
40 -133 0
40 -134 0
133 -133 0
134 -134 0
58 -145 0
58 -146 0
145 -145 0
146 -146 0
76 -157 0
76 -158 0
157 -157 0
158 -158 0
94 -169 0
94 -170 0
169 -169 0
170 -170 0
5 -109 0
5 -110 0
109 -109 0
110 -110 0
23 -121 0
23 -122 0
121 -121 0
122 -122 0
41 -133 0
41 -134 0
133 -133 0
134 -134 0
59 -145 0
59 -146 0
145 -145 0
146 -146 0
77 -157 0
77 -158 0
157 -157 0
158 -158 0
95 -169 0
95 -170 0
169 -169 0
170 -170 0
6 -183 -109 0
-6 183 -109 0
6 183 -110 0
-6 -183 -110 0
24 -183 -121 0
-24 183 -121 0
24 183 -122 0
-24 -183 -122 0
42 -183 -133 0
-42 183 -133 0
42 183 -134 0
-42 -183 -134 0
60 -183 -145 0
-60 183 -145 0
60 183 -146 0
-60 -183 -146 0
78 -183 -157 0
-78 183 -157 0
78 183 -158 0
-78 -183 -158 0
96 -183 -169 0
-96 183 -169 0
96 183 -170 0
-96 -183 -170 0
7 -184 -109 0
-7 184 -109 0
7 184 -110 0
-7 -184 -110 0
25 -184 -121 0
-25 184 -121 0
25 184 -122 0
-25 -184 -122 0
43 -184 -133 0
-43 184 -133 0
43 184 -134 0
-43 -184 -134 0
61 -184 -145 0
-61 184 -145 0
61 184 -146 0
-61 -184 -146 0
79 -184 -157 0
-79 184 -157 0
79 184 -158 0
-79 -184 -158 0
97 -184 -169 0
-97 184 -169 0
97 184 -170 0
-97 -184 -170 0
8 -109 0
8 -110 0
109 -109 0
110 -110 0
26 -121 0
26 -122 0
121 -121 0
122 -122 0
44 -133 0
44 -134 0
133 -133 0
134 -134 0
62 -145 0
62 -146 0
145 -145 0
146 -146 0
80 -157 0
80 -158 0
157 -157 0
158 -158 0
98 -169 0
98 -170 0
169 -169 0
170 -170 0
9 -185 -109 0
-9 185 -109 0
9 185 -110 0
-9 -185 -110 0
27 -185 -121 0
-27 185 -121 0
27 185 -122 0
-27 -185 -122 0
45 -185 -133 0
-45 185 -133 0
45 185 -134 0
-45 -185 -134 0
63 -185 -145 0
-63 185 -145 0
63 185 -146 0
-63 -185 -146 0
81 -185 -157 0
-81 185 -157 0
81 185 -158 0
-81 -185 -158 0
99 -185 -169 0
-99 185 -169 0
99 185 -170 0
-99 -185 -170 0
10 -186 -109 0
-10 186 -109 0
10 186 -110 0
-10 -186 -110 0
28 -186 -121 0
-28 186 -121 0
28 186 -122 0
-28 -186 -122 0
46 -186 -133 0
-46 186 -133 0
46 186 -134 0
-46 -186 -134 0
64 -186 -145 0
-64 186 -145 0
64 186 -146 0
-64 -186 -146 0
82 -186 -157 0
-82 186 -157 0
82 186 -158 0
-82 -186 -158 0
100 -186 -169 0
-100 186 -169 0
100 186 -170 0
-100 -186 -170 0
11 -109 0
11 -110 0
109 -109 0
110 -110 0
29 -121 0
29 -122 0
121 -121 0
122 -122 0
47 -133 0
47 -134 0
133 -133 0
134 -134 0
65 -145 0
65 -146 0
145 -145 0
146 -146 0
83 -157 0
83 -158 0
157 -157 0
158 -158 0
101 -169 0
101 -170 0
169 -169 0
170 -170 0
12 -109 0
12 -110 0
109 -109 0
110 -110 0
30 -121 0
30 -122 0
121 -121 0
122 -122 0
48 -133 0
48 -134 0
133 -133 0
134 -134 0
66 -145 0
66 -146 0
145 -145 0
146 -146 0
84 -157 0
84 -158 0
157 -157 0
158 -158 0
102 -169 0
102 -170 0
169 -169 0
170 -170 0
13 -109 0
13 -110 0
109 -109 0
110 -110 0
31 -121 0
31 -122 0
121 -121 0
122 -122 0
49 -133 0
49 -134 0
133 -133 0
134 -134 0
67 -145 0
67 -146 0
145 -145 0
146 -146 0
85 -157 0
85 -158 0
157 -157 0
158 -158 0
103 -169 0
103 -170 0
169 -169 0
170 -170 0
14 -187 -109 0
-14 187 -109 0
14 187 -110 0
-14 -187 -110 0
32 -187 -121 0
-32 187 -121 0
32 187 -122 0
-32 -187 -122 0
50 -187 -133 0
-50 187 -133 0
50 187 -134 0
-50 -187 -134 0
68 -187 -145 0
-68 187 -145 0
68 187 -146 0
-68 -187 -146 0
86 -187 -157 0
-86 187 -157 0
86 187 -158 0
-86 -187 -158 0
104 -187 -169 0
-104 187 -169 0
104 187 -170 0
-104 -187 -170 0
15 -109 0
15 -110 0
109 -109 0
110 -110 0
33 -121 0
33 -122 0
121 -121 0
122 -122 0
51 -133 0
51 -134 0
133 -133 0
134 -134 0
69 -145 0
69 -146 0
145 -145 0
146 -146 0
87 -157 0
87 -158 0
157 -157 0
158 -158 0
105 -169 0
105 -170 0
169 -169 0
170 -170 0
16 -188 -109 0
-16 188 -109 0
16 188 -110 0
-16 -188 -110 0
34 -188 -121 0
-34 188 -121 0
34 188 -122 0
-34 -188 -122 0
52 -188 -133 0
-52 188 -133 0
52 188 -134 0
-52 -188 -134 0
70 -188 -145 0
-70 188 -145 0
70 188 -146 0
-70 -188 -146 0
88 -188 -157 0
-88 188 -157 0
88 188 -158 0
-88 -188 -158 0
106 -188 -169 0
-106 188 -169 0
106 188 -170 0
-106 -188 -170 0
17 -189 -109 0
-17 189 -109 0
17 189 -110 0
-17 -189 -110 0
35 -189 -121 0
-35 189 -121 0
35 189 -122 0
-35 -189 -122 0
53 -189 -133 0
-53 189 -133 0
53 189 -134 0
-53 -189 -134 0
71 -189 -145 0
-71 189 -145 0
71 189 -146 0
-71 -189 -146 0
89 -189 -157 0
-89 189 -157 0
89 189 -158 0
-89 -189 -158 0
107 -189 -169 0
-107 189 -169 0
107 189 -170 0
-107 -189 -170 0
18 -109 0
18 -110 0
109 -109 0
110 -110 0
36 -121 0
36 -122 0
121 -121 0
122 -122 0
54 -133 0
54 -134 0
133 -133 0
134 -134 0
72 -145 0
72 -146 0
145 -145 0
146 -146 0
90 -157 0
90 -158 0
157 -157 0
158 -158 0
108 -169 0
108 -170 0
169 -169 0
170 -170 0
-289 109 0
289 -109 0
-290 110 0
289 -110 0
-289 -109 0
-290 -110 0
-301 109 289 0
301 -109 0
301 -289 0
-302 110 290 0
302 -110 0
302 -290 0
-301 -121 0
-302 -122 0
-313 121 301 0
313 -121 0
313 -301 0
-314 122 302 0
314 -122 0
314 -302 0
-313 -133 0
-314 -134 0
-325 133 313 0
325 -133 0
325 -313 0
-326 134 314 0
326 -134 0
326 -314 0
-325 -145 0
-326 -146 0
-337 145 325 0
337 -145 0
337 -325 0
-338 146 326 0
338 -146 0
338 -326 0
-337 -157 0
-338 -158 0
-349 157 337 0
349 -157 0
349 -337 0
-350 158 338 0
350 -158 0
350 -338 0
-349 -169 0
-350 -170 0
349 0
350 0
1 -190 -111 0
-1 190 -111 0
1 190 -112 0
-1 -190 -112 0
19 -190 -123 0
-19 190 -123 0
19 190 -124 0
-19 -190 -124 0
37 -190 -135 0
-37 190 -135 0
37 190 -136 0
-37 -190 -136 0
55 -190 -147 0
-55 190 -147 0
55 190 -148 0
-55 -190 -148 0
73 -190 -159 0
-73 190 -159 0
73 190 -160 0
-73 -190 -160 0
91 -190 -171 0
-91 190 -171 0
91 190 -172 0
-91 -190 -172 0
2 -111 0
2 -112 0
111 -111 0
112 -112 0
20 -123 0
20 -124 0
123 -123 0
124 -124 0
38 -135 0
38 -136 0
135 -135 0
136 -136 0
56 -147 0
56 -148 0
147 -147 0
148 -148 0
74 -159 0
74 -160 0
159 -159 0
160 -160 0
92 -171 0
92 -172 0
171 -171 0
172 -172 0
3 -191 -111 0
-3 191 -111 0
3 191 -112 0
-3 -191 -112 0
21 -191 -123 0
-21 191 -123 0
21 191 -124 0
-21 -191 -124 0
39 -191 -135 0
-39 191 -135 0
39 191 -136 0
-39 -191 -136 0
57 -191 -147 0
-57 191 -147 0
57 191 -148 0
-57 -191 -148 0
75 -191 -159 0
-75 191 -159 0
75 191 -160 0
-75 -191 -160 0
93 -191 -171 0
-93 191 -171 0
93 191 -172 0
-93 -191 -172 0
4 -111 0
4 -112 0
111 -111 0
112 -112 0
22 -123 0
22 -124 0
123 -123 0
124 -124 0
40 -135 0
40 -136 0
135 -135 0
136 -136 0
58 -147 0
58 -148 0
147 -147 0
148 -148 0
76 -159 0
76 -160 0
159 -159 0
160 -160 0
94 -171 0
94 -172 0
171 -171 0
172 -172 0
5 -192 -111 0
-5 192 -111 0
5 192 -112 0
-5 -192 -112 0
23 -192 -123 0
-23 192 -123 0
23 192 -124 0
-23 -192 -124 0
41 -192 -135 0
-41 192 -135 0
41 192 -136 0
-41 -192 -136 0
59 -192 -147 0
-59 192 -147 0
59 192 -148 0
-59 -192 -148 0
77 -192 -159 0
-77 192 -159 0
77 192 -160 0
-77 -192 -160 0
95 -192 -171 0
-95 192 -171 0
95 192 -172 0
-95 -192 -172 0
6 -111 0
6 -112 0
111 -111 0
112 -112 0
24 -123 0
24 -124 0
123 -123 0
124 -124 0
42 -135 0
42 -136 0
135 -135 0
136 -136 0
60 -147 0
60 -148 0
147 -147 0
148 -148 0
78 -159 0
78 -160 0
159 -159 0
160 -160 0
96 -171 0
96 -172 0
171 -171 0
172 -172 0
-7 -111 0
-7 -112 0
111 -111 0
112 -112 0
-25 -123 0
-25 -124 0
123 -123 0
124 -124 0
-43 -135 0
-43 -136 0
135 -135 0
136 -136 0
-61 -147 0
-61 -148 0
147 -147 0
148 -148 0
-79 -159 0
-79 -160 0
159 -159 0
160 -160 0
-97 -171 0
-97 -172 0
171 -171 0
172 -172 0
8 -111 0
8 -112 0
111 -111 0
112 -112 0
26 -123 0
26 -124 0
123 -123 0
124 -124 0
44 -135 0
44 -136 0
135 -135 0
136 -136 0
62 -147 0
62 -148 0
147 -147 0
148 -148 0
80 -159 0
80 -160 0
159 -159 0
160 -160 0
98 -171 0
98 -172 0
171 -171 0
172 -172 0
-9 -111 0
-9 -112 0
111 -111 0
112 -112 0
-27 -123 0
-27 -124 0
123 -123 0
124 -124 0
-45 -135 0
-45 -136 0
135 -135 0
136 -136 0
-63 -147 0
-63 -148 0
147 -147 0
148 -148 0
-81 -159 0
-81 -160 0
159 -159 0
160 -160 0
-99 -171 0
-99 -172 0
171 -171 0
172 -172 0
10 -193 -111 0
-10 193 -111 0
10 193 -112 0
-10 -193 -112 0
28 -193 -123 0
-28 193 -123 0
28 193 -124 0
-28 -193 -124 0
46 -193 -135 0
-46 193 -135 0
46 193 -136 0
-46 -193 -136 0
64 -193 -147 0
-64 193 -147 0
64 193 -148 0
-64 -193 -148 0
82 -193 -159 0
-82 193 -159 0
82 193 -160 0
-82 -193 -160 0
100 -193 -171 0
-100 193 -171 0
100 193 -172 0
-100 -193 -172 0
11 -194 -111 0
-11 194 -111 0
11 194 -112 0
-11 -194 -112 0
29 -194 -123 0
-29 194 -123 0
29 194 -124 0
-29 -194 -124 0
47 -194 -135 0
-47 194 -135 0
47 194 -136 0
-47 -194 -136 0
65 -194 -147 0
-65 194 -147 0
65 194 -148 0
-65 -194 -148 0
83 -194 -159 0
-83 194 -159 0
83 194 -160 0
-83 -194 -160 0
101 -194 -171 0
-101 194 -171 0
101 194 -172 0
-101 -194 -172 0
12 -111 0
12 -112 0
111 -111 0
112 -112 0
30 -123 0
30 -124 0
123 -123 0
124 -124 0
48 -135 0
48 -136 0
135 -135 0
136 -136 0
66 -147 0
66 -148 0
147 -147 0
148 -148 0
84 -159 0
84 -160 0
159 -159 0
160 -160 0
102 -171 0
102 -172 0
171 -171 0
172 -172 0
-13 -111 0
-13 -112 0
111 -111 0
112 -112 0
-31 -123 0
-31 -124 0
123 -123 0
124 -124 0
-49 -135 0
-49 -136 0
135 -135 0
136 -136 0
-67 -147 0
-67 -148 0
147 -147 0
148 -148 0
-85 -159 0
-85 -160 0
159 -159 0
160 -160 0
-103 -171 0
-103 -172 0
171 -171 0
172 -172 0
14 -111 0
14 -112 0
111 -111 0
112 -112 0
32 -123 0
32 -124 0
123 -123 0
124 -124 0
50 -135 0
50 -136 0
135 -135 0
136 -136 0
68 -147 0
68 -148 0
147 -147 0
148 -148 0
86 -159 0
86 -160 0
159 -159 0
160 -160 0
104 -171 0
104 -172 0
171 -171 0
172 -172 0
15 -111 0
15 -112 0
111 -111 0
112 -112 0
33 -123 0
33 -124 0
123 -123 0
124 -124 0
51 -135 0
51 -136 0
135 -135 0
136 -136 0
69 -147 0
69 -148 0
147 -147 0
148 -148 0
87 -159 0
87 -160 0
159 -159 0
160 -160 0
105 -171 0
105 -172 0
171 -171 0
172 -172 0
16 -111 0
16 -112 0
111 -111 0
112 -112 0
34 -123 0
34 -124 0
123 -123 0
124 -124 0
52 -135 0
52 -136 0
135 -135 0
136 -136 0
70 -147 0
70 -148 0
147 -147 0
148 -148 0
88 -159 0
88 -160 0
159 -159 0
160 -160 0
106 -171 0
106 -172 0
171 -171 0
172 -172 0
17 -111 0
17 -112 0
111 -111 0
112 -112 0
35 -123 0
35 -124 0
123 -123 0
124 -124 0
53 -135 0
53 -136 0
135 -135 0
136 -136 0
71 -147 0
71 -148 0
147 -147 0
148 -148 0
89 -159 0
89 -160 0
159 -159 0
160 -160 0
107 -171 0
107 -172 0
171 -171 0
172 -172 0
18 -111 0
18 -112 0
111 -111 0
112 -112 0
36 -123 0
36 -124 0
123 -123 0
124 -124 0
54 -135 0
54 -136 0
135 -135 0
136 -136 0
72 -147 0
72 -148 0
147 -147 0
148 -148 0
90 -159 0
90 -160 0
159 -159 0
160 -160 0
108 -171 0
108 -172 0
171 -171 0
172 -172 0
-291 111 0
291 -111 0
-292 112 0
291 -112 0
-291 -111 0
-292 -112 0
-303 111 291 0
303 -111 0
303 -291 0
-304 112 292 0
304 -112 0
304 -292 0
-303 -123 0
-304 -124 0
-315 123 303 0
315 -123 0
315 -303 0
-316 124 304 0
316 -124 0
316 -304 0
-315 -135 0
-316 -136 0
-327 135 315 0
327 -135 0
327 -315 0
-328 136 316 0
328 -136 0
328 -316 0
-327 -147 0
-328 -148 0
-339 147 327 0
339 -147 0
339 -327 0
-340 148 328 0
340 -148 0
340 -328 0
-339 -159 0
-340 -160 0
-351 159 339 0
351 -159 0
351 -339 0
-352 160 340 0
352 -160 0
352 -340 0
-351 -171 0
-352 -172 0
351 0
352 0
1 -195 -113 0
-1 195 -113 0
1 195 -114 0
-1 -195 -114 0
19 -195 -125 0
-19 195 -125 0
19 195 -126 0
-19 -195 -126 0
37 -195 -137 0
-37 195 -137 0
37 195 -138 0
-37 -195 -138 0
55 -195 -149 0
-55 195 -149 0
55 195 -150 0
-55 -195 -150 0
73 -195 -161 0
-73 195 -161 0
73 195 -162 0
-73 -195 -162 0
91 -195 -173 0
-91 195 -173 0
91 195 -174 0
-91 -195 -174 0
2 -113 0
2 -114 0
113 -113 0
114 -114 0
20 -125 0
20 -126 0
125 -125 0
126 -126 0
38 -137 0
38 -138 0
137 -137 0
138 -138 0
56 -149 0
56 -150 0
149 -149 0
150 -150 0
74 -161 0
74 -162 0
161 -161 0
162 -162 0
92 -173 0
92 -174 0
173 -173 0
174 -174 0
3 -196 -113 0
-3 196 -113 0
3 196 -114 0
-3 -196 -114 0
21 -196 -125 0
-21 196 -125 0
21 196 -126 0
-21 -196 -126 0
39 -196 -137 0
-39 196 -137 0
39 196 -138 0
-39 -196 -138 0
57 -196 -149 0
-57 196 -149 0
57 196 -150 0
-57 -196 -150 0
75 -196 -161 0
-75 196 -161 0
75 196 -162 0
-75 -196 -162 0
93 -196 -173 0
-93 196 -173 0
93 196 -174 0
-93 -196 -174 0
4 -197 -113 0
-4 197 -113 0
4 197 -114 0
-4 -197 -114 0
22 -197 -125 0
-22 197 -125 0
22 197 -126 0
-22 -197 -126 0
40 -197 -137 0
-40 197 -137 0
40 197 -138 0
-40 -197 -138 0
58 -197 -149 0
-58 197 -149 0
58 197 -150 0
-58 -197 -150 0
76 -197 -161 0
-76 197 -161 0
76 197 -162 0
-76 -197 -162 0
94 -197 -173 0
-94 197 -173 0
94 197 -174 0
-94 -197 -174 0
5 -198 -113 0
-5 198 -113 0
5 198 -114 0
-5 -198 -114 0
23 -198 -125 0
-23 198 -125 0
23 198 -126 0
-23 -198 -126 0
41 -198 -137 0
-41 198 -137 0
41 198 -138 0
-41 -198 -138 0
59 -198 -149 0
-59 198 -149 0
59 198 -150 0
-59 -198 -150 0
77 -198 -161 0
-77 198 -161 0
77 198 -162 0
-77 -198 -162 0
95 -198 -173 0
-95 198 -173 0
95 198 -174 0
-95 -198 -174 0
6 -199 -113 0
-6 199 -113 0
6 199 -114 0
-6 -199 -114 0
24 -199 -125 0
-24 199 -125 0
24 199 -126 0
-24 -199 -126 0
42 -199 -137 0
-42 199 -137 0
42 199 -138 0
-42 -199 -138 0
60 -199 -149 0
-60 199 -149 0
60 199 -150 0
-60 -199 -150 0
78 -199 -161 0
-78 199 -161 0
78 199 -162 0
-78 -199 -162 0
96 -199 -173 0
-96 199 -173 0
96 199 -174 0
-96 -199 -174 0
7 -200 -113 0
-7 200 -113 0
7 200 -114 0
-7 -200 -114 0
25 -200 -125 0
-25 200 -125 0
25 200 -126 0
-25 -200 -126 0
43 -200 -137 0
-43 200 -137 0
43 200 -138 0
-43 -200 -138 0
61 -200 -149 0
-61 200 -149 0
61 200 -150 0
-61 -200 -150 0
79 -200 -161 0
-79 200 -161 0
79 200 -162 0
-79 -200 -162 0
97 -200 -173 0
-97 200 -173 0
97 200 -174 0
-97 -200 -174 0
8 -113 0
8 -114 0
113 -113 0
114 -114 0
26 -125 0
26 -126 0
125 -125 0
126 -126 0
44 -137 0
44 -138 0
137 -137 0
138 -138 0
62 -149 0
62 -150 0
149 -149 0
150 -150 0
80 -161 0
80 -162 0
161 -161 0
162 -162 0
98 -173 0
98 -174 0
173 -173 0
174 -174 0
9 -201 -113 0
-9 201 -113 0
9 201 -114 0
-9 -201 -114 0
27 -201 -125 0
-27 201 -125 0
27 201 -126 0
-27 -201 -126 0
45 -201 -137 0
-45 201 -137 0
45 201 -138 0
-45 -201 -138 0
63 -201 -149 0
-63 201 -149 0
63 201 -150 0
-63 -201 -150 0
81 -201 -161 0
-81 201 -161 0
81 201 -162 0
-81 -201 -162 0
99 -201 -173 0
-99 201 -173 0
99 201 -174 0
-99 -201 -174 0
-10 -113 0
-10 -114 0
113 -113 0
114 -114 0
-28 -125 0
-28 -126 0
125 -125 0
126 -126 0
-46 -137 0
-46 -138 0
137 -137 0
138 -138 0
-64 -149 0
-64 -150 0
149 -149 0
150 -150 0
-82 -161 0
-82 -162 0
161 -161 0
162 -162 0
-100 -173 0
-100 -174 0
173 -173 0
174 -174 0
11 -202 -113 0
-11 202 -113 0
11 202 -114 0
-11 -202 -114 0
29 -202 -125 0
-29 202 -125 0
29 202 -126 0
-29 -202 -126 0
47 -202 -137 0
-47 202 -137 0
47 202 -138 0
-47 -202 -138 0
65 -202 -149 0
-65 202 -149 0
65 202 -150 0
-65 -202 -150 0
83 -202 -161 0
-83 202 -161 0
83 202 -162 0
-83 -202 -162 0
101 -202 -173 0
-101 202 -173 0
101 202 -174 0
-101 -202 -174 0
12 -203 -113 0
-12 203 -113 0
12 203 -114 0
-12 -203 -114 0
30 -203 -125 0
-30 203 -125 0
30 203 -126 0
-30 -203 -126 0
48 -203 -137 0
-48 203 -137 0
48 203 -138 0
-48 -203 -138 0
66 -203 -149 0
-66 203 -149 0
66 203 -150 0
-66 -203 -150 0
84 -203 -161 0
-84 203 -161 0
84 203 -162 0
-84 -203 -162 0
102 -203 -173 0
-102 203 -173 0
102 203 -174 0
-102 -203 -174 0
-13 -113 0
-13 -114 0
113 -113 0
114 -114 0
-31 -125 0
-31 -126 0
125 -125 0
126 -126 0
-49 -137 0
-49 -138 0
137 -137 0
138 -138 0
-67 -149 0
-67 -150 0
149 -149 0
150 -150 0
-85 -161 0
-85 -162 0
161 -161 0
162 -162 0
-103 -173 0
-103 -174 0
173 -173 0
174 -174 0
14 -113 0
14 -114 0
113 -113 0
114 -114 0
32 -125 0
32 -126 0
125 -125 0
126 -126 0
50 -137 0
50 -138 0
137 -137 0
138 -138 0
68 -149 0
68 -150 0
149 -149 0
150 -150 0
86 -161 0
86 -162 0
161 -161 0
162 -162 0
104 -173 0
104 -174 0
173 -173 0
174 -174 0
15 -204 -113 0
-15 204 -113 0
15 204 -114 0
-15 -204 -114 0
33 -204 -125 0
-33 204 -125 0
33 204 -126 0
-33 -204 -126 0
51 -204 -137 0
-51 204 -137 0
51 204 -138 0
-51 -204 -138 0
69 -204 -149 0
-69 204 -149 0
69 204 -150 0
-69 -204 -150 0
87 -204 -161 0
-87 204 -161 0
87 204 -162 0
-87 -204 -162 0
105 -204 -173 0
-105 204 -173 0
105 204 -174 0
-105 -204 -174 0
16 -113 0
16 -114 0
113 -113 0
114 -114 0
34 -125 0
34 -126 0
125 -125 0
126 -126 0
52 -137 0
52 -138 0
137 -137 0
138 -138 0
70 -149 0
70 -150 0
149 -149 0
150 -150 0
88 -161 0
88 -162 0
161 -161 0
162 -162 0
106 -173 0
106 -174 0
173 -173 0
174 -174 0
17 -205 -113 0
-17 205 -113 0
17 205 -114 0
-17 -205 -114 0
35 -205 -125 0
-35 205 -125 0
35 205 -126 0
-35 -205 -126 0
53 -205 -137 0
-53 205 -137 0
53 205 -138 0
-53 -205 -138 0
71 -205 -149 0
-71 205 -149 0
71 205 -150 0
-71 -205 -150 0
89 -205 -161 0
-89 205 -161 0
89 205 -162 0
-89 -205 -162 0
107 -205 -173 0
-107 205 -173 0
107 205 -174 0
-107 -205 -174 0
18 -113 0
18 -114 0
113 -113 0
114 -114 0
36 -125 0
36 -126 0
125 -125 0
126 -126 0
54 -137 0
54 -138 0
137 -137 0
138 -138 0
72 -149 0
72 -150 0
149 -149 0
150 -150 0
90 -161 0
90 -162 0
161 -161 0
162 -162 0
108 -173 0
108 -174 0
173 -173 0
174 -174 0
-293 113 0
293 -113 0
-294 114 0
293 -114 0
-293 -113 0
-294 -114 0
-305 113 293 0
305 -113 0
305 -293 0
-306 114 294 0
306 -114 0
306 -294 0
-305 -125 0
-306 -126 0
-317 125 305 0
317 -125 0
317 -305 0
-318 126 306 0
318 -126 0
318 -306 0
-317 -137 0
-318 -138 0
-329 137 317 0
329 -137 0
329 -317 0
-330 138 318 0
330 -138 0
330 -318 0
-329 -149 0
-330 -150 0
-341 149 329 0
341 -149 0
341 -329 0
-342 150 330 0
342 -150 0
342 -330 0
-341 -161 0
-342 -162 0
-353 161 341 0
353 -161 0
353 -341 0
-354 162 342 0
354 -162 0
354 -342 0
-353 -173 0
-354 -174 0
353 0
354 0
-1 -115 0
-1 -116 0
115 -115 0
116 -116 0
-19 -127 0
-19 -128 0
127 -127 0
128 -128 0
-37 -139 0
-37 -140 0
139 -139 0
140 -140 0
-55 -151 0
-55 -152 0
151 -151 0
152 -152 0
-73 -163 0
-73 -164 0
163 -163 0
164 -164 0
-91 -175 0
-91 -176 0
175 -175 0
176 -176 0
2 -115 0
2 -116 0
115 -115 0
116 -116 0
20 -127 0
20 -128 0
127 -127 0
128 -128 0
38 -139 0
38 -140 0
139 -139 0
140 -140 0
56 -151 0
56 -152 0
151 -151 0
152 -152 0
74 -163 0
74 -164 0
163 -163 0
164 -164 0
92 -175 0
92 -176 0
175 -175 0
176 -176 0
-3 -115 0
-3 -116 0
115 -115 0
116 -116 0
-21 -127 0
-21 -128 0
127 -127 0
128 -128 0
-39 -139 0
-39 -140 0
139 -139 0
140 -140 0
-57 -151 0
-57 -152 0
151 -151 0
152 -152 0
-75 -163 0
-75 -164 0
163 -163 0
164 -164 0
-93 -175 0
-93 -176 0
175 -175 0
176 -176 0
4 -115 0
4 -116 0
115 -115 0
116 -116 0
22 -127 0
22 -128 0
127 -127 0
128 -128 0
40 -139 0
40 -140 0
139 -139 0
140 -140 0
58 -151 0
58 -152 0
151 -151 0
152 -152 0
76 -163 0
76 -164 0
163 -163 0
164 -164 0
94 -175 0
94 -176 0
175 -175 0
176 -176 0
5 -115 0
5 -116 0
115 -115 0
116 -116 0
23 -127 0
23 -128 0
127 -127 0
128 -128 0
41 -139 0
41 -140 0
139 -139 0
140 -140 0
59 -151 0
59 -152 0
151 -151 0
152 -152 0
77 -163 0
77 -164 0
163 -163 0
164 -164 0
95 -175 0
95 -176 0
175 -175 0
176 -176 0
6 -115 0
6 -116 0
115 -115 0
116 -116 0
24 -127 0
24 -128 0
127 -127 0
128 -128 0
42 -139 0
42 -140 0
139 -139 0
140 -140 0
60 -151 0
60 -152 0
151 -151 0
152 -152 0
78 -163 0
78 -164 0
163 -163 0
164 -164 0
96 -175 0
96 -176 0
175 -175 0
176 -176 0
7 -206 -115 0
-7 206 -115 0
7 206 -116 0
-7 -206 -116 0
25 -206 -127 0
-25 206 -127 0
25 206 -128 0
-25 -206 -128 0
43 -206 -139 0
-43 206 -139 0
43 206 -140 0
-43 -206 -140 0
61 -206 -151 0
-61 206 -151 0
61 206 -152 0
-61 -206 -152 0
79 -206 -163 0
-79 206 -163 0
79 206 -164 0
-79 -206 -164 0
97 -206 -175 0
-97 206 -175 0
97 206 -176 0
-97 -206 -176 0
8 -115 0
8 -116 0
115 -115 0
116 -116 0
26 -127 0
26 -128 0
127 -127 0
128 -128 0
44 -139 0
44 -140 0
139 -139 0
140 -140 0
62 -151 0
62 -152 0
151 -151 0
152 -152 0
80 -163 0
80 -164 0
163 -163 0
164 -164 0
98 -175 0
98 -176 0
175 -175 0
176 -176 0
9 -207 -115 0
-9 207 -115 0
9 207 -116 0
-9 -207 -116 0
27 -207 -127 0
-27 207 -127 0
27 207 -128 0
-27 -207 -128 0
45 -207 -139 0
-45 207 -139 0
45 207 -140 0
-45 -207 -140 0
63 -207 -151 0
-63 207 -151 0
63 207 -152 0
-63 -207 -152 0
81 -207 -163 0
-81 207 -163 0
81 207 -164 0
-81 -207 -164 0
99 -207 -175 0
-99 207 -175 0
99 207 -176 0
-99 -207 -176 0
10 -208 -115 0
-10 208 -115 0
10 208 -116 0
-10 -208 -116 0
28 -208 -127 0
-28 208 -127 0
28 208 -128 0
-28 -208 -128 0
46 -208 -139 0
-46 208 -139 0
46 208 -140 0
-46 -208 -140 0
64 -208 -151 0
-64 208 -151 0
64 208 -152 0
-64 -208 -152 0
82 -208 -163 0
-82 208 -163 0
82 208 -164 0
-82 -208 -164 0
100 -208 -175 0
-100 208 -175 0
100 208 -176 0
-100 -208 -176 0
11 -115 0
11 -116 0
115 -115 0
116 -116 0
29 -127 0
29 -128 0
127 -127 0
128 -128 0
47 -139 0
47 -140 0
139 -139 0
140 -140 0
65 -151 0
65 -152 0
151 -151 0
152 -152 0
83 -163 0
83 -164 0
163 -163 0
164 -164 0
101 -175 0
101 -176 0
175 -175 0
176 -176 0
12 -115 0
12 -116 0
115 -115 0
116 -116 0
30 -127 0
30 -128 0
127 -127 0
128 -128 0
48 -139 0
48 -140 0
139 -139 0
140 -140 0
66 -151 0
66 -152 0
151 -151 0
152 -152 0
84 -163 0
84 -164 0
163 -163 0
164 -164 0
102 -175 0
102 -176 0
175 -175 0
176 -176 0
13 -209 -115 0
-13 209 -115 0
13 209 -116 0
-13 -209 -116 0
31 -209 -127 0
-31 209 -127 0
31 209 -128 0
-31 -209 -128 0
49 -209 -139 0
-49 209 -139 0
49 209 -140 0
-49 -209 -140 0
67 -209 -151 0
-67 209 -151 0
67 209 -152 0
-67 -209 -152 0
85 -209 -163 0
-85 209 -163 0
85 209 -164 0
-85 -209 -164 0
103 -209 -175 0
-103 209 -175 0
103 209 -176 0
-103 -209 -176 0
14 -115 0
14 -116 0
115 -115 0
116 -116 0
32 -127 0
32 -128 0
127 -127 0
128 -128 0
50 -139 0
50 -140 0
139 -139 0
140 -140 0
68 -151 0
68 -152 0
151 -151 0
152 -152 0
86 -163 0
86 -164 0
163 -163 0
164 -164 0
104 -175 0
104 -176 0
175 -175 0
176 -176 0
15 -115 0
15 -116 0
115 -115 0
116 -116 0
33 -127 0
33 -128 0
127 -127 0
128 -128 0
51 -139 0
51 -140 0
139 -139 0
140 -140 0
69 -151 0
69 -152 0
151 -151 0
152 -152 0
87 -163 0
87 -164 0
163 -163 0
164 -164 0
105 -175 0
105 -176 0
175 -175 0
176 -176 0
16 -115 0
16 -116 0
115 -115 0
116 -116 0
34 -127 0
34 -128 0
127 -127 0
128 -128 0
52 -139 0
52 -140 0
139 -139 0
140 -140 0
70 -151 0
70 -152 0
151 -151 0
152 -152 0
88 -163 0
88 -164 0
163 -163 0
164 -164 0
106 -175 0
106 -176 0
175 -175 0
176 -176 0
17 -115 0
17 -116 0
115 -115 0
116 -116 0
35 -127 0
35 -128 0
127 -127 0
128 -128 0
53 -139 0
53 -140 0
139 -139 0
140 -140 0
71 -151 0
71 -152 0
151 -151 0
152 -152 0
89 -163 0
89 -164 0
163 -163 0
164 -164 0
107 -175 0
107 -176 0
175 -175 0
176 -176 0
18 -115 0
18 -116 0
115 -115 0
116 -116 0
36 -127 0
36 -128 0
127 -127 0
128 -128 0
54 -139 0
54 -140 0
139 -139 0
140 -140 0
72 -151 0
72 -152 0
151 -151 0
152 -152 0
90 -163 0
90 -164 0
163 -163 0
164 -164 0
108 -175 0
108 -176 0
175 -175 0
176 -176 0
-295 115 0
295 -115 0
-296 116 0
295 -116 0
-295 -115 0
-296 -116 0
-307 115 295 0
307 -115 0
307 -295 0
-308 116 296 0
308 -116 0
308 -296 0
-307 -127 0
-308 -128 0
-319 127 307 0
319 -127 0
319 -307 0
-320 128 308 0
320 -128 0
320 -308 0
-319 -139 0
-320 -140 0
-331 139 319 0
331 -139 0
331 -319 0
-332 140 320 0
332 -140 0
332 -320 0
-331 -151 0
-332 -152 0
-343 151 331 0
343 -151 0
343 -331 0
-344 152 332 0
344 -152 0
344 -332 0
-343 -163 0
-344 -164 0
-355 163 343 0
355 -163 0
355 -343 0
-356 164 344 0
356 -164 0
356 -344 0
-355 -175 0
-356 -176 0
355 0
356 0
-1 -117 0
-1 -118 0
117 -117 0
118 -118 0
-19 -129 0
-19 -130 0
129 -129 0
130 -130 0
-37 -141 0
-37 -142 0
141 -141 0
142 -142 0
-55 -153 0
-55 -154 0
153 -153 0
154 -154 0
-73 -165 0
-73 -166 0
165 -165 0
166 -166 0
-91 -177 0
-91 -178 0
177 -177 0
178 -178 0
2 -117 0
2 -118 0
117 -117 0
118 -118 0
20 -129 0
20 -130 0
129 -129 0
130 -130 0
38 -141 0
38 -142 0
141 -141 0
142 -142 0
56 -153 0
56 -154 0
153 -153 0
154 -154 0
74 -165 0
74 -166 0
165 -165 0
166 -166 0
92 -177 0
92 -178 0
177 -177 0
178 -178 0
-3 -117 0
-3 -118 0
117 -117 0
118 -118 0
-21 -129 0
-21 -130 0
129 -129 0
130 -130 0
-39 -141 0
-39 -142 0
141 -141 0
142 -142 0
-57 -153 0
-57 -154 0
153 -153 0
154 -154 0
-75 -165 0
-75 -166 0
165 -165 0
166 -166 0
-93 -177 0
-93 -178 0
177 -177 0
178 -178 0
4 -210 -117 0
-4 210 -117 0
4 210 -118 0
-4 -210 -118 0
22 -210 -129 0
-22 210 -129 0
22 210 -130 0
-22 -210 -130 0
40 -210 -141 0
-40 210 -141 0
40 210 -142 0
-40 -210 -142 0
58 -210 -153 0
-58 210 -153 0
58 210 -154 0
-58 -210 -154 0
76 -210 -165 0
-76 210 -165 0
76 210 -166 0
-76 -210 -166 0
94 -210 -177 0
-94 210 -177 0
94 210 -178 0
-94 -210 -178 0
5 -211 -117 0
-5 211 -117 0
5 211 -118 0
-5 -211 -118 0
23 -211 -129 0
-23 211 -129 0
23 211 -130 0
-23 -211 -130 0
41 -211 -141 0
-41 211 -141 0
41 211 -142 0
-41 -211 -142 0
59 -211 -153 0
-59 211 -153 0
59 211 -154 0
-59 -211 -154 0
77 -211 -165 0
-77 211 -165 0
77 211 -166 0
-77 -211 -166 0
95 -211 -177 0
-95 211 -177 0
95 211 -178 0
-95 -211 -178 0
6 -212 -117 0
-6 212 -117 0
6 212 -118 0
-6 -212 -118 0
24 -212 -129 0
-24 212 -129 0
24 212 -130 0
-24 -212 -130 0
42 -212 -141 0
-42 212 -141 0
42 212 -142 0
-42 -212 -142 0
60 -212 -153 0
-60 212 -153 0
60 212 -154 0
-60 -212 -154 0
78 -212 -165 0
-78 212 -165 0
78 212 -166 0
-78 -212 -166 0
96 -212 -177 0
-96 212 -177 0
96 212 -178 0
-96 -212 -178 0
7 -213 -117 0
-7 213 -117 0
7 213 -118 0
-7 -213 -118 0
25 -213 -129 0
-25 213 -129 0
25 213 -130 0
-25 -213 -130 0
43 -213 -141 0
-43 213 -141 0
43 213 -142 0
-43 -213 -142 0
61 -213 -153 0
-61 213 -153 0
61 213 -154 0
-61 -213 -154 0
79 -213 -165 0
-79 213 -165 0
79 213 -166 0
-79 -213 -166 0
97 -213 -177 0
-97 213 -177 0
97 213 -178 0
-97 -213 -178 0
8 -117 0
8 -118 0
117 -117 0
118 -118 0
26 -129 0
26 -130 0
129 -129 0
130 -130 0
44 -141 0
44 -142 0
141 -141 0
142 -142 0
62 -153 0
62 -154 0
153 -153 0
154 -154 0
80 -165 0
80 -166 0
165 -165 0
166 -166 0
98 -177 0
98 -178 0
177 -177 0
178 -178 0
9 -214 -117 0
-9 214 -117 0
9 214 -118 0
-9 -214 -118 0
27 -214 -129 0
-27 214 -129 0
27 214 -130 0
-27 -214 -130 0
45 -214 -141 0
-45 214 -141 0
45 214 -142 0
-45 -214 -142 0
63 -214 -153 0
-63 214 -153 0
63 214 -154 0
-63 -214 -154 0
81 -214 -165 0
-81 214 -165 0
81 214 -166 0
-81 -214 -166 0
99 -214 -177 0
-99 214 -177 0
99 214 -178 0
-99 -214 -178 0
-10 -117 0
-10 -118 0
117 -117 0
118 -118 0
-28 -129 0
-28 -130 0
129 -129 0
130 -130 0
-46 -141 0
-46 -142 0
141 -141 0
142 -142 0
-64 -153 0
-64 -154 0
153 -153 0
154 -154 0
-82 -165 0
-82 -166 0
165 -165 0
166 -166 0
-100 -177 0
-100 -178 0
177 -177 0
178 -178 0
11 -215 -117 0
-11 215 -117 0
11 215 -118 0
-11 -215 -118 0
29 -215 -129 0
-29 215 -129 0
29 215 -130 0
-29 -215 -130 0
47 -215 -141 0
-47 215 -141 0
47 215 -142 0
-47 -215 -142 0
65 -215 -153 0
-65 215 -153 0
65 215 -154 0
-65 -215 -154 0
83 -215 -165 0
-83 215 -165 0
83 215 -166 0
-83 -215 -166 0
101 -215 -177 0
-101 215 -177 0
101 215 -178 0
-101 -215 -178 0
12 -117 0
12 -118 0
117 -117 0
118 -118 0
30 -129 0
30 -130 0
129 -129 0
130 -130 0
48 -141 0
48 -142 0
141 -141 0
142 -142 0
66 -153 0
66 -154 0
153 -153 0
154 -154 0
84 -165 0
84 -166 0
165 -165 0
166 -166 0
102 -177 0
102 -178 0
177 -177 0
178 -178 0
-13 -117 0
-13 -118 0
117 -117 0
118 -118 0
-31 -129 0
-31 -130 0
129 -129 0
130 -130 0
-49 -141 0
-49 -142 0
141 -141 0
142 -142 0
-67 -153 0
-67 -154 0
153 -153 0
154 -154 0
-85 -165 0
-85 -166 0
165 -165 0
166 -166 0
-103 -177 0
-103 -178 0
177 -177 0
178 -178 0
14 -117 0
14 -118 0
117 -117 0
118 -118 0
32 -129 0
32 -130 0
129 -129 0
130 -130 0
50 -141 0
50 -142 0
141 -141 0
142 -142 0
68 -153 0
68 -154 0
153 -153 0
154 -154 0
86 -165 0
86 -166 0
165 -165 0
166 -166 0
104 -177 0
104 -178 0
177 -177 0
178 -178 0
15 -117 0
15 -118 0
117 -117 0
118 -118 0
33 -129 0
33 -130 0
129 -129 0
130 -130 0
51 -141 0
51 -142 0
141 -141 0
142 -142 0
69 -153 0
69 -154 0
153 -153 0
154 -154 0
87 -165 0
87 -166 0
165 -165 0
166 -166 0
105 -177 0
105 -178 0
177 -177 0
178 -178 0
16 -216 -117 0
-16 216 -117 0
16 216 -118 0
-16 -216 -118 0
34 -216 -129 0
-34 216 -129 0
34 216 -130 0
-34 -216 -130 0
52 -216 -141 0
-52 216 -141 0
52 216 -142 0
-52 -216 -142 0
70 -216 -153 0
-70 216 -153 0
70 216 -154 0
-70 -216 -154 0
88 -216 -165 0
-88 216 -165 0
88 216 -166 0
-88 -216 -166 0
106 -216 -177 0
-106 216 -177 0
106 216 -178 0
-106 -216 -178 0
17 -217 -117 0
-17 217 -117 0
17 217 -118 0
-17 -217 -118 0
35 -217 -129 0
-35 217 -129 0
35 217 -130 0
-35 -217 -130 0
53 -217 -141 0
-53 217 -141 0
53 217 -142 0
-53 -217 -142 0
71 -217 -153 0
-71 217 -153 0
71 217 -154 0
-71 -217 -154 0
89 -217 -165 0
-89 217 -165 0
89 217 -166 0
-89 -217 -166 0
107 -217 -177 0
-107 217 -177 0
107 217 -178 0
-107 -217 -178 0
18 -117 0
18 -118 0
117 -117 0
118 -118 0
36 -129 0
36 -130 0
129 -129 0
130 -130 0
54 -141 0
54 -142 0
141 -141 0
142 -142 0
72 -153 0
72 -154 0
153 -153 0
154 -154 0
90 -165 0
90 -166 0
165 -165 0
166 -166 0
108 -177 0
108 -178 0
177 -177 0
178 -178 0
-297 117 0
297 -117 0
-298 118 0
297 -118 0
-297 -117 0
-298 -118 0
-309 117 297 0
309 -117 0
309 -297 0
-310 118 298 0
310 -118 0
310 -298 0
-309 -129 0
-310 -130 0
-321 129 309 0
321 -129 0
321 -309 0
-322 130 310 0
322 -130 0
322 -310 0
-321 -141 0
-322 -142 0
-333 141 321 0
333 -141 0
333 -321 0
-334 142 322 0
334 -142 0
334 -322 0
-333 -153 0
-334 -154 0
-345 153 333 0
345 -153 0
345 -333 0
-346 154 334 0
346 -154 0
346 -334 0
-345 -165 0
-346 -166 0
-357 165 345 0
357 -165 0
357 -345 0
-358 166 346 0
358 -166 0
358 -346 0
-357 -177 0
-358 -178 0
357 0
358 0
1 -218 -119 0
-1 218 -119 0
1 218 -120 0
-1 -218 -120 0
19 -218 -131 0
-19 218 -131 0
19 218 -132 0
-19 -218 -132 0
37 -218 -143 0
-37 218 -143 0
37 218 -144 0
-37 -218 -144 0
55 -218 -155 0
-55 218 -155 0
55 218 -156 0
-55 -218 -156 0
73 -218 -167 0
-73 218 -167 0
73 218 -168 0
-73 -218 -168 0
91 -218 -179 0
-91 218 -179 0
91 218 -180 0
-91 -218 -180 0
2 -119 0
2 -120 0
119 -119 0
120 -120 0
20 -131 0
20 -132 0
131 -131 0
132 -132 0
38 -143 0
38 -144 0
143 -143 0
144 -144 0
56 -155 0
56 -156 0
155 -155 0
156 -156 0
74 -167 0
74 -168 0
167 -167 0
168 -168 0
92 -179 0
92 -180 0
179 -179 0
180 -180 0
3 -219 -119 0
-3 219 -119 0
3 219 -120 0
-3 -219 -120 0
21 -219 -131 0
-21 219 -131 0
21 219 -132 0
-21 -219 -132 0
39 -219 -143 0
-39 219 -143 0
39 219 -144 0
-39 -219 -144 0
57 -219 -155 0
-57 219 -155 0
57 219 -156 0
-57 -219 -156 0
75 -219 -167 0
-75 219 -167 0
75 219 -168 0
-75 -219 -168 0
93 -219 -179 0
-93 219 -179 0
93 219 -180 0
-93 -219 -180 0
4 -220 -119 0
-4 220 -119 0
4 220 -120 0
-4 -220 -120 0
22 -220 -131 0
-22 220 -131 0
22 220 -132 0
-22 -220 -132 0
40 -220 -143 0
-40 220 -143 0
40 220 -144 0
-40 -220 -144 0
58 -220 -155 0
-58 220 -155 0
58 220 -156 0
-58 -220 -156 0
76 -220 -167 0
-76 220 -167 0
76 220 -168 0
-76 -220 -168 0
94 -220 -179 0
-94 220 -179 0
94 220 -180 0
-94 -220 -180 0
-5 -119 0
-5 -120 0
119 -119 0
120 -120 0
-23 -131 0
-23 -132 0
131 -131 0
132 -132 0
-41 -143 0
-41 -144 0
143 -143 0
144 -144 0
-59 -155 0
-59 -156 0
155 -155 0
156 -156 0
-77 -167 0
-77 -168 0
167 -167 0
168 -168 0
-95 -179 0
-95 -180 0
179 -179 0
180 -180 0
-6 -119 0
-6 -120 0
119 -119 0
120 -120 0
-24 -131 0
-24 -132 0
131 -131 0
132 -132 0
-42 -143 0
-42 -144 0
143 -143 0
144 -144 0
-60 -155 0
-60 -156 0
155 -155 0
156 -156 0
-78 -167 0
-78 -168 0
167 -167 0
168 -168 0
-96 -179 0
-96 -180 0
179 -179 0
180 -180 0
7 -119 0
7 -120 0
119 -119 0
120 -120 0
25 -131 0
25 -132 0
131 -131 0
132 -132 0
43 -143 0
43 -144 0
143 -143 0
144 -144 0
61 -155 0
61 -156 0
155 -155 0
156 -156 0
79 -167 0
79 -168 0
167 -167 0
168 -168 0
97 -179 0
97 -180 0
179 -179 0
180 -180 0
8 -119 0
8 -120 0
119 -119 0
120 -120 0
26 -131 0
26 -132 0
131 -131 0
132 -132 0
44 -143 0
44 -144 0
143 -143 0
144 -144 0
62 -155 0
62 -156 0
155 -155 0
156 -156 0
80 -167 0
80 -168 0
167 -167 0
168 -168 0
98 -179 0
98 -180 0
179 -179 0
180 -180 0
9 -119 0
9 -120 0
119 -119 0
120 -120 0
27 -131 0
27 -132 0
131 -131 0
132 -132 0
45 -143 0
45 -144 0
143 -143 0
144 -144 0
63 -155 0
63 -156 0
155 -155 0
156 -156 0
81 -167 0
81 -168 0
167 -167 0
168 -168 0
99 -179 0
99 -180 0
179 -179 0
180 -180 0
-10 -119 0
-10 -120 0
119 -119 0
120 -120 0
-28 -131 0
-28 -132 0
131 -131 0
132 -132 0
-46 -143 0
-46 -144 0
143 -143 0
144 -144 0
-64 -155 0
-64 -156 0
155 -155 0
156 -156 0
-82 -167 0
-82 -168 0
167 -167 0
168 -168 0
-100 -179 0
-100 -180 0
179 -179 0
180 -180 0
11 -119 0
11 -120 0
119 -119 0
120 -120 0
29 -131 0
29 -132 0
131 -131 0
132 -132 0
47 -143 0
47 -144 0
143 -143 0
144 -144 0
65 -155 0
65 -156 0
155 -155 0
156 -156 0
83 -167 0
83 -168 0
167 -167 0
168 -168 0
101 -179 0
101 -180 0
179 -179 0
180 -180 0
12 -119 0
12 -120 0
119 -119 0
120 -120 0
30 -131 0
30 -132 0
131 -131 0
132 -132 0
48 -143 0
48 -144 0
143 -143 0
144 -144 0
66 -155 0
66 -156 0
155 -155 0
156 -156 0
84 -167 0
84 -168 0
167 -167 0
168 -168 0
102 -179 0
102 -180 0
179 -179 0
180 -180 0
13 -221 -119 0
-13 221 -119 0
13 221 -120 0
-13 -221 -120 0
31 -221 -131 0
-31 221 -131 0
31 221 -132 0
-31 -221 -132 0
49 -221 -143 0
-49 221 -143 0
49 221 -144 0
-49 -221 -144 0
67 -221 -155 0
-67 221 -155 0
67 221 -156 0
-67 -221 -156 0
85 -221 -167 0
-85 221 -167 0
85 221 -168 0
-85 -221 -168 0
103 -221 -179 0
-103 221 -179 0
103 221 -180 0
-103 -221 -180 0
14 -222 -119 0
-14 222 -119 0
14 222 -120 0
-14 -222 -120 0
32 -222 -131 0
-32 222 -131 0
32 222 -132 0
-32 -222 -132 0
50 -222 -143 0
-50 222 -143 0
50 222 -144 0
-50 -222 -144 0
68 -222 -155 0
-68 222 -155 0
68 222 -156 0
-68 -222 -156 0
86 -222 -167 0
-86 222 -167 0
86 222 -168 0
-86 -222 -168 0
104 -222 -179 0
-104 222 -179 0
104 222 -180 0
-104 -222 -180 0
15 -119 0
15 -120 0
119 -119 0
120 -120 0
33 -131 0
33 -132 0
131 -131 0
132 -132 0
51 -143 0
51 -144 0
143 -143 0
144 -144 0
69 -155 0
69 -156 0
155 -155 0
156 -156 0
87 -167 0
87 -168 0
167 -167 0
168 -168 0
105 -179 0
105 -180 0
179 -179 0
180 -180 0
16 -223 -119 0
-16 223 -119 0
16 223 -120 0
-16 -223 -120 0
34 -223 -131 0
-34 223 -131 0
34 223 -132 0
-34 -223 -132 0
52 -223 -143 0
-52 223 -143 0
52 223 -144 0
-52 -223 -144 0
70 -223 -155 0
-70 223 -155 0
70 223 -156 0
-70 -223 -156 0
88 -223 -167 0
-88 223 -167 0
88 223 -168 0
-88 -223 -168 0
106 -223 -179 0
-106 223 -179 0
106 223 -180 0
-106 -223 -180 0
17 -119 0
17 -120 0
119 -119 0
120 -120 0
35 -131 0
35 -132 0
131 -131 0
132 -132 0
53 -143 0
53 -144 0
143 -143 0
144 -144 0
71 -155 0
71 -156 0
155 -155 0
156 -156 0
89 -167 0
89 -168 0
167 -167 0
168 -168 0
107 -179 0
107 -180 0
179 -179 0
180 -180 0
18 -119 0
18 -120 0
119 -119 0
120 -120 0
36 -131 0
36 -132 0
131 -131 0
132 -132 0
54 -143 0
54 -144 0
143 -143 0
144 -144 0
72 -155 0
72 -156 0
155 -155 0
156 -156 0
90 -167 0
90 -168 0
167 -167 0
168 -168 0
108 -179 0
108 -180 0
179 -179 0
180 -180 0
-299 119 0
299 -119 0
-300 120 0
299 -120 0
-299 -119 0
-300 -120 0
-311 119 299 0
311 -119 0
311 -299 0
-312 120 300 0
312 -120 0
312 -300 0
-311 -131 0
-312 -132 0
-323 131 311 0
323 -131 0
323 -311 0
-324 132 312 0
324 -132 0
324 -312 0
-323 -143 0
-324 -144 0
-335 143 323 0
335 -143 0
335 -323 0
-336 144 324 0
336 -144 0
336 -324 0
-335 -155 0
-336 -156 0
-347 155 335 0
347 -155 0
347 -335 0
-348 156 336 0
348 -156 0
348 -336 0
-347 -167 0
-348 -168 0
-359 167 347 0
359 -167 0
359 -347 0
-360 168 348 0
360 -168 0
360 -348 0
-359 -179 0
-360 -180 0
359 0
360 0
